&CONTROL
  calculation = 'scf'
  etot_conv_thr =   2.0000000000d-05
  forc_conv_thr =   1.0000000000d-04
  outdir = './out/'
  prefix = 'Si'
  pseudo_dir = '.'
  tprnfor = .true.
  tstress = .true.
  verbosity = 'high'
/
&SYSTEM
  degauss =   2.0000000000d-02
  ecutrho =   2.4000000000d+02
  ecutwfc =   3.0000000000d+01
  ibrav = 0
  nat = 2
  nosym = .false.
  ntyp = 1
  occupations = 'fixed'
/
&ELECTRONS
  conv_thr =   4.0000000000d-10
  electron_maxstep = 80
  mixing_beta =   4.0000000000d-01
/
ATOMIC_SPECIES
Si     28.0855 Si.pbe-n-rrkjus_psl.1.0.0.UPF
ATOMIC_POSITIONS crystal
Si           0.0000000000       0.0000000000       0.0000000000
Si           0.7500000000       0.7500000000       0.7500000000
K_POINTS automatic
5 5 5 0 0 0
CELL_PARAMETERS angstrom
     -2.7218511850      -2.7218511850       0.0000000000
     -2.7218511850       0.0000000000      -2.7218511850
     -0.0000000000      -2.7218511850      -2.7218511850
